--- Job Wordle.gms Start 08/23/22 02:12:01 39.2.0 e0c5072f WEX-WEI x86 64bit/MS Windows
--- Applying:
    C:\GAMS\39\gmsprmNT.txt
    C:\Users\erwin\Documents\GAMS\gamsconfig.yaml
--- GAMS Parameters defined
    Input C:\projects\OptimizationModels\Wordle\Wordle.gms
    PageWidth 120
    PageSize 0
    ScrDir C:\projects\OptimizationModels\Wordle\225a\
    SysDir C:\GAMS\39\
    LogOption 3
    ErrMsg 1
    ErrorLog 99
    IDE 1
    LstTitleLeftAligned 1
Licensee: Eval License                                   G211206|0002CO-GEN
          Amsterdam Optimization Modeling Group,                     DCE378
          C:\Users\erwin\Documents\GAMS\gamslice.txt
          License Admin: Erwin Kalvelagen, info@amsterdamoptimization.com  
          Evaluation license: Not for commercial or production use
Processor information: 1 socket(s), 8 core(s), and 16 thread(s) available
GAMS 39.2.0   Copyright (C) 1987-2022 GAMS Development. All rights reserved
--- Starting compilation
--- Wordle.gms(22) 2 Mb
--- . words.inc(1018) 4 Mb
--- Wordle.gms(67) 4 Mb
--- Starting execution: elapsed 0:00:00.016
--- Wordle.gms(1062) 6 Mb
--- Generating MIP model m
--- Wordle.gms(1081) 12 Mb
---   27 rows  10,176 columns  61,051 non-zeroes
---   10,175 discrete-columns
--- Range statistics (absolute non-zero finite values)
--- RHS       [min, max] : [ 1.000E+00, 1.000E+00] - Zero values observed as well
--- Bound     [min, max] : [ 1.000E+00, 1.000E+00] - Zero values observed as well
--- Matrix    [min, max] : [ 1.000E+00, 1.000E+00]
--- Executing CPLEX (Solvelink=2): elapsed 0:00:00.220

IBM ILOG CPLEX   39.2.0 e0c5072f Jun 2, 2022           WEI x86 64bit/MS Window

--- GAMS/Cplex Link licensed for continuous and discrete problems.
--- GMO setup time: 0.00s
--- Space for names approximately 0.18 Mb
--- Use option 'names no' to turn use of names off
--- GMO memory 4.20 Mb (peak 4.28 Mb)
--- Dictionary memory 0.00 Mb
--- Cplex 22.1.0.0 link memory 0.19 Mb (peak 1.17 Mb)
--- Starting Cplex

Version identifier: 22.1.0.0 | 2022-03-09 | 1a383f8ce
CPXPARAM_Advance                                 0
CPXPARAM_Threads                                 1
CPXPARAM_MIP_Display                             4
CPXPARAM_MIP_Pool_Capacity                       0
CPXPARAM_MIP_Tolerances_AbsMIPGap                0
Generic callback                                 0x50
Found incumbent of value 0.000000 after 0.00 sec. (0.17 ticks)
Tried aggregator 1 time.
MIP Presolve eliminated 0 rows and 4200 columns.
MIP Presolve modified 1 coefficients.
Reduced MIP has 26 rows, 5976 columns, and 30053 nonzeros.
Reduced MIP has 5976 binaries, 0 generals, 0 SOSs, and 0 indicators.
Presolve time = 0.05 sec. (40.26 ticks)
Tried aggregator 1 time.
Detecting symmetries...
Reduced MIP has 26 rows, 5976 columns, and 30053 nonzeros.
Reduced MIP has 5976 binaries, 0 generals, 0 SOSs, and 0 indicators.
Presolve time = 0.00 sec. (21.07 ticks)
Dual steepest-edge pricing selected.
Probing time = 0.00 sec. (10.69 ticks)
Clique table members: 26.
MIP emphasis: balance optimality and feasibility.
MIP search method: dynamic search.
Parallel mode: none, using 1 thread.
Tried aggregator 1 time.
No LP presolve or aggregator reductions.
Presolve time = 0.00 sec. (2.42 ticks)

Iteration log . . .
Iteration:     1   Dual objective     =          3433.000000
Iteration:   101   Dual objective     =             5.986667
Root relaxation solution time = 0.02 sec. (13.66 ticks)

        Nodes                                         Cuts/
   Node  Left     Objective  IInf  Best Integer    Best Bound    ItCnt     Gap

*     0+    0                            0.0000     5976.0000              --- 
Found incumbent of value 0.000000 after 0.08 sec. (94.41 ticks)
      0     0        5.2000    26        0.0000        5.2000      170     --- 
*     0+    0                            5.0000        5.2000             4.00%
Found incumbent of value 5.000000 after 0.08 sec. (107.34 ticks)
      0     0        cutoff              5.0000        5.2000      170    4.00%
Elapsed time = 0.08 sec. (107.34 ticks, tree = 0.01 MB)

Root node processing (before b&c):
  Real time             =    0.08 sec. (107.47 ticks)
Sequential b&c:
  Real time             =    0.00 sec. (0.00 ticks)
                          ------------
Total (root+branch&cut) =    0.08 sec. (107.47 ticks)

--- MIP status (101): integer optimal solution.
--- Cplex Time: 0.08sec (det. 107.49 ticks)

--- Fixing integer variables and solving final LP...

Version identifier: 22.1.0.0 | 2022-03-09 | 1a383f8ce
CPXPARAM_Advance                                 2
CPXPARAM_Threads                                 1
CPXPARAM_MIP_Display                             4
CPXPARAM_MIP_Pool_Capacity                       0
CPXPARAM_MIP_Tolerances_AbsMIPGap                0
Tried aggregator 1 time.
LP Presolve eliminated 26 rows and 10176 columns.
All rows and columns eliminated.
Presolve time = 0.00 sec. (3.94 ticks)

--- Fixed MIP status (1): optimal.
--- Cplex Time: 0.00sec (det. 4.97 ticks)


Proven optimal solution
MIP Solution:            5.000000    (170 iterations, 0 nodes)
Final Solve:             5.000000    (0 iterations)

Best possible:           5.000000
Absolute gap:            0.000000
Relative gap:            0.000000

--- Reading solution for model m
--- Executing after solve: elapsed 0:00:00.348
--- Wordle.gms(1082) 12 Mb
*** Status: Normal completion
--- Job Wordle.gms Stop 08/23/22 02:12:02 elapsed 0:00:00.348
